Problem:    
Rows:       113
Columns:    45 (34 integer, 34 binary)
Non-zeros:  356
Status:     INTEGER OPTIMAL
Objective:  value = 31.491828 (MINimum)

   No.   Row name        Activity     Lower bound   Upper bound
------ ------------    ------------- ------------- -------------
     1 r.5                   1031.49             0               
     2 r.6                  -985.385      -992.871               
     3 r.7                   31.4918             0               
     4 r.8                   31.4918      -995.662               
     5 r.9                   31.4918             0               
     6 r.10                  31.4918      -988.019               
     7 r.11                  1031.49             0               
     8 r.12                 -968.508      -993.327               
     9 r.13                  31.4918             0               
    10 r.14                  31.4918       -969.54               
    11 r.15                  1031.49             0               
    12 r.16                 -975.181       -981.09               
    13 r.17                  1031.49             0               
    14 r.18                 -968.508      -983.123               
    15 r.19                  31.4918             0               
    16 r.20                  31.4918      -988.516               
    17 r.21                  1031.49             0               
    18 r.22                 -999.123      -999.123               
    19 r.23                  31.4918             0               
    20 r.24                  9.71973      -997.934               
    21 r.25                        1             1             = 
    22 r.26                        1             1             = 
    23 r.27                        1             1             = 
    24 r.28                        1             1             = 
    25 r.29                        1             1             = 
    26 r.30                     1001             2               
    27 r.31                    -1001         -1001               
    28 r.32                  2016.88      -988.019               
    29 r.33                     1001             2               
    30 r.34                    -1001         -1001               
    31 r.35                     2000      -993.327               
    32 r.36                     1001             2               
    33 r.37                    -1001         -1001               
    34 r.38                  2016.88       -969.54               
    35 r.39                     1001             2               
    36 r.40                    -1001         -1001               
    37 r.41                  1993.33       -981.09               
    38 r.42                        2             2               
    39 r.43                       -2         -1001               
    40 r.44                 -983.123      -983.123               
    41 r.45                     1000             2               
    42 r.46                    -1000         -1001               
    43 r.47                     2000      -988.516               
    44 r.48                 -991.293      -992.871               
    45 r.49                  25.5833      -995.662               
    46 r.50                 -991.293      -992.871               
    47 r.51                  25.5833      -995.662               
    48 r.52                     1001             2               
    49 r.53                    -1001         -1001               
    50 r.54                  1983.12        7.1286               
    51 r.55                     1001             2               
    52 r.56                    -1001         -1001               
    53 r.57                     2000        4.3382               
    54 r.58                     1000             2               
    55 r.59                    -1000         -1001               
    56 r.60                     2000       -969.54               
    57 r.61                        2             2               
    58 r.62                       -2         -1001               
    59 r.63                  -6.6733       -981.09               
    60 r.64                     1001             2               
    61 r.65                    -1001         -1001               
    62 r.66                     2000      -983.123               
    63 r.67                     1001             2               
    64 r.68                    -1001         -1001               
    65 r.69                     2000      -988.516               
    66 r.70                  25.5833      -988.019               
    67 r.71                 -974.417      -993.327               
    68 r.72                  25.5833      -988.019               
    69 r.73                 -974.417      -993.327               
    70 r.74                     1001             2               
    71 r.75                    -1001         -1001               
    72 r.76                  1983.12        7.1286               
    73 r.77                     1001             2               
    74 r.78                    -1001         -1001               
    75 r.79                  2006.67        4.3382               
    76 r.80                     1000             2               
    77 r.81                    -1000         -1001               
    78 r.82                     2000       11.9809               
    79 r.83                        2             2               
    80 r.84                       -2         -1001               
    81 r.85                   6.6733        6.6733               
    82 r.86                     1001             2               
    83 r.87                    -1001         -1001               
    84 r.88                     2000      -983.123               
    85 r.89                     1001             2               
    86 r.90                    -1001         -1001               
    87 r.91                  2006.67      -988.516               
    88 r.92                  25.5833       -969.54               
    89 r.93                  -981.09       -981.09               
    90 r.94                  25.5833       -969.54               
    91 r.95                  -981.09       -981.09               
    92 r.96                        2             2               
    93 r.97                       -2         -1001               
    94 r.98                  983.123        7.1286               
    95 r.99                     1000             2               
    96 r.100                   -1000         -1001               
    97 r.101                    2000        4.3382               
    98 r.102                    1001             2               
    99 r.103                   -1001         -1001               
   100 r.104                    2000       11.9809               
   101 r.105                    1001             2               
   102 r.106                   -1001         -1001               
   103 r.107                    2000        6.6733               
   104 r.108                    1001             2               
   105 r.109                   -1001         -1001               
   106 r.110                    2000       30.4597               
   107 r.111                    1001             2               
   108 r.112                   -1001         -1001               
   109 r.113                 1993.33         18.91               
   110 r.114                -974.417      -983.123               
   111 r.115                 25.5833      -988.516               
   112 r.116                -974.417      -983.123               
   113 r.117                 25.5833      -988.516               

   No. Column name       Activity     Lower bound   Upper bound
------ ------------    ------------- ------------- -------------
     1 tt                    31.4918             0               
     2 s_1_1        *              1             0             1 
     3 t_1_1                 16.8767             0               
     4 s_2_1        *              0             0             1 
     5 t_2_1                       0             0               
     6 s_1_2        *              0             0             1 
     7 t_1_2                       0             0               
     8 s_2_2        *              1             0             1 
     9 t_2_2                       0             0               
    10 s_1_3        *              0             0             1 
    11 t_1_3                       0             0               
    12 s_2_3        *              1             0             1 
    13 t_2_3                  6.6733             0               
    14 s_1_4        *              1             0             1 
    15 t_1_4                       0             0               
    16 s_2_4        *              0             0             1 
    17 t_2_4                       0             0               
    18 s_1_5        *              1             0             1 
    19 t_1_5                 25.5833             0               
    20 s_2_5        *              0             0             1 
    21 t_2_5                 25.5833             0               
    22 r_1_1_2      *              1             0             1 
    23 u_1_1_2      *              0             0             1 
    24 r_2_1_2      *              1             0             1 
    25 u_2_1_2      *              0             0             1 
    26 r_1_1_3      *              1             0             1 
    27 u_1_1_3      *              0             0             1 
    28 r_2_1_3      *              1             0             1 
    29 u_2_1_3      *              0             0             1 
    30 r_1_1_4      *              0             0             1 
    31 u_1_1_4      *              1             0             1 
    32 r_2_1_4      *              1             0             1 
    33 u_2_1_4      *              0             0             1 
    34 r_1_2_3      *              1             0             1 
    35 u_1_2_3      *              0             0             1 
    36 r_2_2_3      *              0             0             1 
    37 u_2_2_3      *              0             0             1 
    38 r_1_2_4      *              1             0             1 
    39 u_1_2_4      *              0             0             1 
    40 r_2_2_4      *              1             0             1 
    41 u_2_2_4      *              0             0             1 
    42 r_1_3_4      *              1             0             1 
    43 u_1_3_4      *              0             0             1 
    44 r_2_3_4      *              1             0             1 
    45 u_2_3_4      *              0             0             1 

Integer feasibility conditions:

KKT.PE: max.abs.err = 0.00e+00 on row 0
        max.rel.err = 0.00e+00 on row 0
        High quality

KKT.PB: max.abs.err = 1.14e-13 on row 91
        max.rel.err = 1.16e-16 on row 91
        High quality

End of output
